SCIP version 5.0.0 [precision: 8 byte] [memory: block] [mode: debug] [LP solver: NONE] [GitHash: 3bbd232]
Copyright (C) 2002-2017 Konrad-Zuse-Zentrum fuer Informationstechnik Berlin (ZIB)

External codes: 
  Readline EditLine w  GNU library for command line editing (gnu.org/s/readline)
  CppAD 20160000.1     Algorithmic Differentiation of C++ algorithms developed by B. Bell (www.coin-or.org/CppAD)
  ZLIB 1.2.5           General purpose compression library by J. Gailly and M. Adler (zlib.net)
  GMP 6.1.2            GNU Multiple Precision Arithmetic Library developed by T. Granlund (gmplib.org)

reading user parameter file <../read_sol/settings/default.set>

read problem <../data/parkin.logreg>
============

File name	:	../data/parkin.logreg
Problem name 	:	parkin
Number of data	:	195
Number of var	:	22
The given data has linear independence
unknown variable <t_1> of solution file <parkin_05.sol>
  (further unknown variables are ignored)
unknown variable <t_1> of solution file <parkin_09.sol>
  (further unknown variables are ignored)
unknown variable <t_1> of solution file <parkin_17.sol>
  (further unknown variables are ignored)
read_05
read_09
read_17

1 0 0 0 0 0 1 1 0 1 0 0 0 0 1 0 0 1 0 0 1 0 1 
1 0 0 0 0 0 1 1 0 1 0 0 0 0 1 0 0 1 0 0 1 0 1 
1 0 0 0 0 0 1 1 0 1 0 0 0 0 1 0 0 1 0 0 1 0 1 
k: 8
AIC: 113.497
k: 8
AIC: 113.497
k: 8
AIC: 113.497
